letting n_nurses=25
letting n_days=7
letting n_shift_types=4
letting max_covers=9
letting t_covers=61
letting covers=[9,3,7,0,1,0,0,0,5,6,3,0,6,3,7,0,5,4,2,0,0,0,0,0,0,0,0,0]
letting prefes=[2,1,1,3,1,1,3,2,1,1,3,2,1,1,3,2,2,1,1,3,2,1,1,3,1,1,3,2,3,1,1,4,2,4,3,2,2,4,3,2,2,4,3,2,3,1,1,4,3,1,1,4,2,4,3,2,3,1,1,4,2,4,3,2,2,4,3,2,2,4,3,2,3,1,1,4,3,1,1,4,2,4,3,2,3,1,1,4,2,4,3,2,2,4,3,2,2,4,3,2,3,1,1,4,3,1,1,4,2,4,3,2,2,3,1,4,1,1,3,2,1,1,3,2,1,1,3,2,2,3,1,4,2,3,1,4,1,1,3,2,2,3,1,4,1,4,4,2,1,4,4,2,1,4,4,2,2,3,1,4,2,3,1,4,1,4,4,2,2,1,4,4,1,4,3,2,1,4,3,2,1,4,3,2,2,1,4,4,2,1,4,4,1,4,3,2,2,1,1,3,1,4,3,2,1,4,3,2,1,4,3,2,2,1,1,3,2,1,1,3,1,4,3,2,2,1,1,4,1,4,3,2,1,4,3,2,1,4,3,2,2,1,1,4,2,1,1,4,1,4,3,2,2,1,1,4,1,4,4,2,1,4,4,2,1,4,4,2,2,1,1,4,2,1,1,4,1,4,4,2,2,1,1,4,1,4,3,1,1,4,3,1,1,4,3,1,2,1,1,4,2,1,1,4,1,4,3,1,2,1,1,4,1,4,3,2,1,4,3,2,1,4,3,2,2,1,1,4,2,1,1,4,1,4,3,2,2,1,4,4,1,4,3,2,1,4,3,2,1,4,3,2,2,1,4,4,2,1,4,4,1,4,3,2,3,1,4,4,1,4,3,1,1,4,3,1,1,4,3,1,3,1,4,4,3,1,4,4,1,4,3,1,2,3,1,4,1,4,3,2,1,4,3,2,1,4,3,2,2,3,1,4,2,3,1,4,1,4,3,2,2,3,1,4,1,1,4,2,1,1,4,2,1,1,4,2,2,3,1,4,2,3,1,4,1,1,4,2,3,1,4,4,1,4,4,2,1,4,4,2,1,4,4,2,3,1,4,4,3,1,4,4,1,4,4,2,2,1,1,4,1,4,3,1,1,4,3,1,1,4,3,1,2,1,1,4,2,1,1,4,1,4,3,1,2,1,4,3,2,4,3,2,2,4,3,2,2,4,3,2,2,1,4,3,2,1,4,3,2,4,3,2,2,3,1,4,1,4,3,1,1,4,3,1,1,4,3,1,2,3,1,4,2,3,1,4,1,4,3,1,2,1,1,4,1,4,3,2,1,4,3,2,1,4,3,2,2,1,1,4,2,1,1,4,1,4,3,2,2,1,1,4,2,4,3,2,2,4,3,2,2,4,3,2,2,1,1,4,2,1,1,4,2,4,3,2,2,1,1,4,1,1,3,1,1,1,3,1,1,1,3,1,2,1,1,4,2,1,1,4,1,1,3,1,2,1,1,3,1,1,3,2,1,1,3,2,1,1,3,2,2,1,1,3,2,1,1,3,1,1,3,2,2,1,1,3,1,4,4,2,1,4,4,2,1,4,4,2,2,1,1,3,2,1,1,3,1,4,4,2]
letting ub =  313
